3 32 1 10
18 9 17 1 18 14 11 14 4 7 16 17 20 6 14 12 5 9 19 12 19 13 19 3 14 1 19 15 5 5 12 2 
15.89 13.73 15.92 3.07 12.82 13.91 9.39 3.3 10.04 1.21 6.28 0.36 3.56 13.28 14.34 11.81 9.36 14.46 5.74 10.98 5.24 3.81 2.76 1.4 2.96 12.58 10.68 2.43 4.58 14.21 5.07 9.07 
8 8 8 8 8 8 8 8 8 8 8 8 8 8 8 8 8 8 8 8 8 8 8 8 8 8 8 8 8 8 8 8 
13.52 4.71 1.5 12.07 15.19 12.41 6.64 14.13 13.24 2.1 13.18 9.93 10.92 6.68 0.84 11.47 10.48 7.32 7.14 14.11 4.97 14.81 8.3 0.66 10.63 2.54 6.24 9.9 6.54 4.17 3.45 10.01 
1 1 1 1 1 1 1 1 1 1 1 1 1 1 1 1 1 1 1 1 1 1 1 1 1 1 1 1 1 1 1 1 
1 1 1 1 1 1 1 1 1 1 1 1 1 1 1 1 1 1 1 1 1 1 1 1 1 1 1 1 1 1 1 1 
1 1 1 1 1 1 1 1 1 1 1 1 1 1 1 1 1 1 1 1 1 1 1 1 1 1 1 1 1 1 1 1 
0.01 0.01 0.01 0.01 0.01 0.01 0.01 0.01 0.01 0.01 0.01 0.01 0.01 0.01 0.01 0.01 0.01 0.01 0.01 0.01 0.01 0.01 0.01 0.01 0.01 0.01 0.01 0.01 0.01 0.01 0.01 0.01 
0.02 0.02 0.02 0.02 0.02 0.02 0.02 0.02 0.02 0.02 0.02 0.02 0.02 0.02 0.02 0.02 0.02 0.02 0.02 0.02 0.02 0.02 0.02 0.02 0.02 0.02 0.02 0.02 0.02 0.02 0.02 0.02 
1 1 1 1 1 1 1 1 1 1 1 1 1 1 1 1 1 1 1 1 1 1 1 1 1 1 1 1 1 1 1 1 
